NAME: berlin
TYPE: TSP
COMMENT: File created by Luismi and Ageu
DIMENSION: 20
EDGE_WEIGHT_TYPE: GEO
EDGE_WEIGHT_FORMAT: FUNCTION
DISPLAY_DATA_TYPE: COORD_DISPLAY
NODE_COORD_SECTION
	0	160.0		320.0
	1	591.0		184.0
	2	815.0		55.0
	3	414.0		825.0
	4	756.0		862.0
	5	123.0		241.0
	6	1408.0		543.0
	7	450.0		177.0
	8	1640.0		668.0
	9	864.0		20.0
	10	1215.0		391.0
	11	1306.0		742.0
	12	1300.0		422.0
	13	233.0		851.0
	14	9.0		82.0
	15	40.0		621.0
	16	1261.0		67.0
	17	56.0		891.0
	18	649.0		949.0
	19	1744.0		714.0
EOF